DIMACS2
40 612 532 288 426 401 2 138 317 32 185 153 498 437 405 323 614 327 419 213 286 488 77 46 409 88 139 427 475 463 278 396 576 584 617 581 519 549 505 91 156
p edge 640 1761
e 0 230 1.0
e 0 320 1.0
e 1 433 2.0
e 1 545 1.0
e 2 20 11.0
e 2 596 20.0
e 2 256 12.0
e 2 326 44.0
e 2 276 10.0
e 2 466 9.0
e 2 121 3.0
e 2 300 25.0
e 2 598 41.0
e 2 603 12.0
e 2 451 5.0
e 2 11 6.0
e 2 185 17.0
e 2 554 3.0
e 2 289 23.0
e 3 507 1.0
e 3 633 1.0
e 4 635 1.0
e 4 239 1.0
e 5 375 2.0
e 5 496 1.0
e 6 203 4.0
e 6 532 32.0
e 7 550 1.0
e 7 8 2.0
e 8 500 1.0
e 8 538 1.0
e 9 74 1.0
e 9 186 2.0
e 10 6 4.0
e 10 438 1.0
e 11 487 1.0
e 11 275 1.0
e 12 455 1.0
e 12 38 1.0
e 13 249 1.0
e 13 251 1.0
e 14 42 2.0
e 14 427 25.0
e 15 612 23.0
e 15 103 4.0
e 16 572 1.0
e 16 263 3.0
e 17 287 1.0
e 17 21 1.0
e 18 222 1.0
e 18 238 1.0
e 19 478 1.0
e 19 310 2.0
e 20 283 1.0
e 20 307 1.0
e 21 368 1.0
e 21 602 1.0
e 22 464 1.0
e 22 534 2.0
e 23 85 1.0
e 23 474 1.0
e 24 84 1.0
e 24 0 1.0
e 25 4 1.0
e 25 185 41.0
e 26 404 1.0
e 26 465 1.0
e 27 176 1.0
e 27 202 2.0
e 28 636 1.0
e 28 607 1.0
e 29 497 1.0
e 29 193 1.0
e 30 297 1.0
e 30 137 1.0
e 31 175 1.0
e 31 527 1.0
e 32 172 41.0
e 32 606 30.0
e 32 321 2.0
e 32 211 49.0
e 32 501 31.0
e 32 106 23.0
e 32 483 5.0
e 32 371 18.0
e 32 383 18.0
e 32 98 36.0
e 32 308 27.0
e 32 387 18.0
e 32 632 3.0
e 32 264 32.0
e 32 158 1.0
e 32 314 47.0
e 33 479 1.0
e 33 530 2.0
e 34 631 1.0
e 34 152 4.0
e 35 557 2.0
e 35 248 3.0
e 36 236 4.0
e 36 405 47.0
e 37 288 23.0
e 37 302 4.0
e 38 406 1.0
e 38 209 1.0
e 39 488 17.0
e 39 127 2.0
e 40 608 1.0
e 40 136 1.0
e 41 75 1.0
e 41 310 1.0
e 42 72 1.0
e 42 602 2.0
e 43 152 1.0
e 43 427 11.0
e 44 513 1.0
e 44 337 1.0
e 45 103 1.0
e 45 594 1.0
e 46 475 4.0
e 46 264 39.0
e 46 96 9.0
e 46 51 38.0
e 46 163 48.0
e 46 595 31.0
e 46 1 40.0
e 46 304 47.0
e 46 428 7.0
e 46 224 41.0
e 46 503 2.0
e 46 23 21.0
e 46 319 14.0
e 46 69 42.0
e 46 228 9.0
e 46 71 27.0
e 46 583 7.0
e 47 517 1.0
e 47 185 43.0
e 48 304 1.0
e 48 36 3.0
e 49 593 1.0
e 49 269 2.0
e 50 262 2.0
e 50 593 1.0
e 51 251 2.0
e 51 630 2.0
e 52 141 1.0
e 52 570 1.0
e 53 160 1.0
e 53 494 1.0
e 54 43 1.0
e 54 344 1.0
e 55 190 1.0
e 55 217 1.0
e 56 611 2.0
e 56 285 1.0
e 57 421 1.0
e 57 302 1.0
e 58 362 2.0
e 58 272 1.0
e 59 17 1.0
e 59 108 1.0
e 60 367 1.0
e 60 262 1.0
e 61 12 1.0
e 61 127 1.0
e 62 522 1.0
e 62 332 1.0
e 63 637 1.0
e 63 416 1.0
e 64 562 1.0
e 64 360 2.0
e 65 396 33.0
e 65 553 2.0
e 66 279 2.0
e 66 297 1.0
e 67 630 1.0
e 67 27 1.0
e 68 478 1.0
e 68 475 43.0
e 69 512 1.0
e 69 231 2.0
e 70 370 1.0
e 70 102 1.0
e 71 109 1.0
e 71 48 1.0
e 72 564 1.0
e 72 254 1.0
e 73 475 36.0
e 73 312 1.0
e 74 379 1.0
e 74 278 40.0
e 75 284 1.0
e 75 567 1.0
e 76 303 3.0
e 76 295 1.0
e 77 525 28.0
e 77 34 10.0
e 77 278 17.0
e 77 409 46.0
e 77 351 28.0
e 77 146 33.0
e 77 357 45.0
e 77 582 1.0
e 77 581 38.0
e 77 371 46.0
e 77 153 23.0
e 77 576 19.0
e 77 486 31.0
e 77 163 11.0
e 77 401 32.0
e 77 154 2.0
e 77 98 21.0
e 78 596 1.0
e 78 203 1.0
e 79 181 1.0
e 79 609 1.0
e 80 36 1.0
e 80 626 1.0
e 81 234 1.0
e 81 372 1.0
e 82 609 1.0
e 82 500 1.0
e 83 147 1.0
e 83 475 35.0
e 84 423 1.0
e 84 479 1.0
e 85 577 1.0
e 85 619 1.0
e 86 273 1.0
e 86 283 1.0
e 87 559 1.0
e 87 373 1.0
e 88 500 33.0
e 88 119 10.0
e 88 537 26.0
e 88 516 36.0
e 88 437 3.0
e 88 257 47.0
e 88 256 9.0
e 88 298 1.0
e 88 487 16.0
e 88 110 19.0
e 88 247 16.0
e 88 327 5.0
e 88 603 44.0
e 88 303 40.0
e 88 135 48.0
e 89 192 3.0
e 89 577 1.0
e 90 276 1.0
e 90 128 1.0
e 91 465 39.0
e 91 552 49.0
e 91 329 37.0
e 91 605 23.0
e 91 195 27.0
e 91 222 31.0
e 91 488 24.0
e 91 562 35.0
e 91 45 4.0
e 91 37 31.0
e 91 342 27.0
e 91 258 12.0
e 91 584 38.0
e 91 623 20.0
e 91 433 28.0
e 92 575 1.0
e 92 91 17.0
e 93 392 2.0
e 93 616 2.0
e 94 511 1.0
e 94 161 1.0
e 95 344 2.0
e 95 162 3.0
e 96 400 1.0
e 96 553 1.0
e 97 464 2.0
e 97 591 2.0
e 98 104 1.0
e 98 621 1.0
e 99 618 2.0
e 99 544 2.0
e 100 130 1.0
e 100 253 1.0
e 101 520 1.0
e 101 161 2.0
e 102 29 1.0
e 102 561 1.0
e 103 160 1.0
e 103 37 3.0
e 104 496 2.0
e 104 475 19.0
e 105 23 1.0
e 105 75 1.0
e 106 245 7.0
e 106 153 46.0
e 106 577 10.0
e 106 389 7.0
e 107 568 1.0
e 107 313 1.0
e 108 142 1.0
e 108 40 1.0
e 109 221 1.0
e 109 232 1.0
e 110 379 1.0
e 110 633 5.0
e 111 534 2.0
e 111 528 2.0
e 112 293 2.0
e 112 114 3.0
e 113 301 1.0
e 113 613 1.0
e 114 478 1.0
e 114 530 1.0
e 115 610 2.0
e 115 75 1.0
e 116 85 1.0
e 116 196 1.0
e 117 264 1.0
e 117 380 1.0
e 118 553 1.0
e 118 286 7.0
e 118 248 1.0
e 119 56 1.0
e 119 390 2.0
e 120 126 2.0
e 120 548 1.0
e 121 316 1.0
e 121 409 35.0
e 122 324 1.0
e 122 74 1.0
e 123 207 1.0
e 123 22 1.0
e 124 380 1.0
e 124 373 1.0
e 125 26 1.0
e 125 574 1.0
e 126 180 1.0
e 126 182 1.0
e 127 614 44.0
e 127 463 32.0
e 128 512 2.0
e 128 438 1.0
e 129 547 1.0
e 129 208 1.0
e 130 333 1.0
e 130 134 1.0
e 131 626 1.0
e 131 320 1.0
e 132 450 2.0
e 132 87 2.0
e 133 168 1.0
e 133 580 2.0
e 134 510 2.0
e 134 421 2.0
e 135 621 1.0
e 135 112 2.0
e 136 156 47.0
e 136 372 1.0
e 137 143 1.0
e 137 365 2.0
e 138 358 12.0
e 138 277 19.0
e 138 451 9.0
e 138 269 1.0
e 138 402 26.0
e 138 286 22.0
e 138 288 33.0
e 138 521 3.0
e 138 318 10.0
e 138 86 17.0
e 138 192 46.0
e 138 374 25.0
e 138 80 6.0
e 138 344 26.0
e 138 144 40.0
e 138 563 34.0
e 138 219 7.0
e 139 601 6.0
e 139 110 17.0
e 139 437 19.0
e 139 279 7.0
e 139 442 33.0
e 139 491 9.0
e 139 35 17.0
e 139 521 2.0
e 139 24 40.0
e 139 363 29.0
e 139 374 3.0
e 139 2 42.0
e 139 422 5.0
e 139 539 31.0
e 139 128 9.0
e 139 375 13.0
e 140 380 2.0
e 140 162 2.0
e 141 18 1.0
e 141 328 1.0
e 142 29 2.0
e 142 272 2.0
e 143 550 3.0
e 143 439 1.0
e 144 382 1.0
e 144 637 1.0
e 145 206 1.0
e 145 507 1.0
e 146 536 1.0
e 146 563 1.0
e 147 485 1.0
e 147 368 1.0
e 148 141 1.0
e 148 369 1.0
e 149 213 33.0
e 149 473 2.0
e 150 420 1.0
e 150 105 1.0
e 151 586 2.0
e 151 469 1.0
e 152 296 1.0
e 152 97 1.0
e 153 610 30.0
e 153 481 4.0
e 153 191 24.0
e 153 635 25.0
e 153 309 14.0
e 153 497 16.0
e 153 113 19.0
e 153 390 16.0
e 153 131 17.0
e 153 39 44.0
e 153 539 4.0
e 153 81 35.0
e 153 164 36.0
e 153 396 17.0
e 153 439 8.0
e 154 185 7.0
e 154 246 1.0
e 155 239 1.0
e 155 585 1.0
e 156 50 25.0
e 156 419 8.0
e 156 132 8.0
e 156 575 32.0
e 156 123 2.0
e 156 225 29.0
e 156 639 14.0
e 156 414 25.0
e 156 57 28.0
e 156 137 5.0
e 156 39 6.0
e 156 271 45.0
e 156 274 49.0
e 156 448 48.0
e 157 495 1.0
e 157 152 1.0
e 158 188 1.0
e 158 267 2.0
e 159 42 2.0
e 159 381 1.0
e 160 382 1.0
e 160 79 1.0
e 161 424 1.0
e 161 472 1.0
e 162 285 1.0
e 162 523 1.0
e 163 212 4.0
e 163 405 41.0
e 164 180 2.0
e 164 63 1.0
e 165 388 1.0
e 165 107 1.0
e 166 638 3.0
e 166 405 39.0
e 166 99 1.0
e 167 574 2.0
e 167 445 1.0
e 168 47 1.0
e 168 291 2.0
e 169 388 2.0
e 169 105 1.0
e 170 62 1.0
e 170 88 14.0
e 171 95 2.0
e 171 441 1.0
e 172 97 2.0
e 172 254 1.0
e 173 345 1.0
e 173 456 2.0
e 174 238 1.0
e 174 356 1.0
e 175 119 2.0
e 175 517 2.0
e 176 480 1.0
e 176 149 2.0
e 177 27 1.0
e 177 436 1.0
e 178 345 3.0
e 178 463 47.0
e 179 404 1.0
e 179 10 1.0
e 180 368 2.0
e 180 130 1.0
e 181 449 1.0
e 181 629 2.0
e 182 177 1.0
e 182 553 1.0
e 183 299 1.0
e 183 407 1.0
e 184 525 1.0
e 184 476 1.0
e 185 165 46.0
e 185 85 15.0
e 185 261 21.0
e 185 309 20.0
e 185 327 39.0
e 185 294 11.0
e 185 83 32.0
e 185 311 49.0
e 185 515 49.0
e 185 550 9.0
e 185 328 23.0
e 185 7 34.0
e 186 303 2.0
e 186 2 1.0
e 187 119 2.0
e 187 209 1.0
e 188 631 1.0
e 188 388 1.0
e 189 532 43.0
e 189 95 1.0
e 190 528 1.0
e 190 249 1.0
e 191 74 1.0
e 191 320 1.0
e 192 19 2.0
e 192 412 1.0
e 193 566 1.0
e 193 208 1.0
e 194 440 1.0
e 194 409 10.0
e 195 133 1.0
e 195 31 1.0
e 196 53 1.0
e 196 504 1.0
e 197 3 1.0
e 197 352 1.0
e 198 210 2.0
e 198 537 1.0
e 199 113 1.0
e 199 26 1.0
e 200 239 1.0
e 200 401 40.0
e 201 277 1.0
e 201 149 2.0
e 202 528 2.0
e 202 540 1.0
e 203 496 1.0
e 203 449 1.0
e 204 67 1.0
e 204 6 4.0
e 205 220 1.0
e 205 214 2.0
e 206 183 1.0
e 206 517 1.0
e 207 449 2.0
e 207 157 1.0
e 208 196 1.0
e 208 588 1.0
e 209 365 1.0
e 209 111 1.0
e 210 634 1.0
e 210 236 1.0
e 211 441 1.0
e 211 204 1.0
e 212 622 1.0
e 212 6 5.0
e 213 53 47.0
e 213 327 37.0
e 213 151 41.0
e 213 364 17.0
e 213 17 29.0
e 213 611 13.0
e 213 401 3.0
e 213 258 5.0
e 213 246 20.0
e 213 250 5.0
e 213 343 34.0
e 213 417 49.0
e 213 11 3.0
e 213 28 26.0
e 214 336 1.0
e 214 428 2.0
e 215 265 1.0
e 215 574 2.0
e 216 221 1.0
e 216 584 19.0
e 217 253 1.0
e 217 271 2.0
e 218 480 1.0
e 218 378 2.0
e 219 597 1.0
e 219 638 1.0
e 220 603 1.0
e 220 418 1.0
e 221 140 1.0
e 221 440 1.0
e 222 441 1.0
e 222 573 2.0
e 223 546 1.0
e 223 538 1.0
e 224 386 1.0
e 224 421 1.0
e 225 336 1.0
e 225 437 27.0
e 226 632 1.0
e 226 630 1.0
e 227 509 2.0
e 227 270 1.0
e 228 44 1.0
e 228 215 1.0
e 229 379 1.0
e 229 247 1.0
e 230 210 1.0
e 230 157 1.0
e 231 92 1.0
e 231 194 1.0
e 232 524 1.0
e 232 447 1.0
e 233 436 1.0
e 233 89 1.0
e 234 412 1.0
e 234 332 2.0
e 235 617 8.0
e 235 475 30.0
e 236 460 2.0
e 236 331 2.0
e 237 597 1.0
e 237 27 1.0
e 238 326 1.0
e 238 210 1.0
e 239 336 1.0
e 239 283 1.0
e 240 620 2.0
e 240 337 1.0
e 241 93 1.0
e 241 514 1.0
e 242 109 1.0
e 242 168 2.0
e 243 357 1.0
e 243 143 1.0
e 244 559 1.0
e 244 601 1.0
e 245 599 1.0
e 245 394 1.0
e 246 509 1.0
e 246 484 1.0
e 247 43 1.0
e 247 558 2.0
e 248 420 1.0
e 248 184 1.0
e 249 42 1.0
e 249 490 1.0
e 250 399 1.0
e 251 545 1.0
e 251 490 1.0
e 252 268 1.0
e 252 561 1.0
e 253 526 1.0
e 253 383 1.0
e 254 583 1.0
e 254 411 1.0
e 255 457 1.0
e 255 325 1.0
e 256 367 1.0
e 256 547 1.0
e 257 180 1.0
e 257 15 2.0
e 258 333 1.0
e 258 215 1.0
e 259 499 1.0
e 259 97 2.0
e 260 116 1.0
e 260 255 1.0
e 261 83 1.0
e 261 227 2.0
e 262 317 35.0
e 262 415 3.0
e 263 152 1.0
e 263 476 1.0
e 264 194 1.0
e 264 510 1.0
e 265 494 1.0
e 265 499 1.0
e 266 124 2.0
e 266 407 1.0
e 267 276 1.0
e 267 322 1.0
e 268 49 1.0
e 268 91 22.0
e 269 586 1.0
e 269 573 1.0
e 270 299 1.0
e 270 244 1.0
e 271 34 4.0
e 271 489 1.0
e 272 368 2.0
e 272 25 2.0
e 273 447 3.0
e 273 518 1.0
e 274 65 1.0
e 274 464 2.0
e 275 555 1.0
e 275 368 1.0
e 276 515 2.0
e 276 195 1.0
e 277 82 2.0
e 277 538 2.0
e 278 590 9.0
e 278 465 13.0
e 278 565 35.0
e 278 204 48.0
e 278 118 17.0
e 278 252 43.0
e 278 12 31.0
e 278 498 11.0
e 278 360 39.0
e 278 474 36.0
e 278 365 20.0
e 278 599 39.0
e 278 148 48.0
e 278 142 8.0
e 279 532 17.0
e 279 356 5.0
e 280 425 1.0
e 280 471 1.0
e 281 531 1.0
e 281 446 2.0
e 282 243 2.0
e 282 353 1.0
e 283 331 2.0
e 283 223 2.0
e 284 125 1.0
e 284 201 1.0
e 285 270 1.0
e 285 252 1.0
e 286 248 26.0
e 286 57 4.0
e 286 424 48.0
e 286 359 23.0
e 286 197 35.0
e 286 445 37.0
e 286 46 8.0
e 286 581 2.0
e 286 335 24.0
e 286 14 25.0
e 286 498 29.0
e 286 288 47.0
e 286 305 6.0
e 286 237 20.0
e 286 437 22.0
e 287 527 1.0
e 287 544 1.0
e 288 51 1.0
e 288 134 17.0
e 288 225 19.0
e 288 520 15.0
e 288 2 23.0
e 288 405 33.0
e 288 259 40.0
e 288 542 26.0
e 288 376 34.0
e 288 623 7.0
e 288 624 47.0
e 288 409 11.0
e 288 334 38.0
e 289 239 1.0
e 289 282 1.0
e 290 240 1.0
e 290 2 42.0
e 291 20 2.0
e 291 56 1.0
e 292 30 1.0
e 292 408 1.0
e 293 332 2.0
e 293 340 2.0
e 294 38 1.0
e 294 259 1.0
e 295 56 1.0
e 295 178 2.0
e 296 33 1.0
e 296 622 1.0
e 297 62 1.0
e 297 76 1.0
e 298 296 1.0
e 298 514 1.0
e 299 75 1.0
e 299 59 1.0
e 300 287 1.0
e 300 212 1.0
e 301 60 1.0
e 301 224 1.0
e 302 556 1.0
e 302 293 1.0
e 303 198 1.0
e 303 253 1.0
e 304 92 1.0
e 304 379 1.0
e 305 219 2.0
e 305 30 1.0
e 306 0 1.0
e 306 257 1.0
e 307 3 1.0
e 307 634 3.0
e 308 176 1.0
e 308 19 1.0
e 309 60 2.0
e 309 58 2.0
e 310 277 1.0
e 310 162 1.0
e 311 517 1.0
e 311 194 2.0
e 312 393 1.0
e 312 76 1.0
e 313 455 1.0
e 313 14 2.0
e 314 481 3.0
e 314 55 1.0
e 315 462 3.0
e 315 614 38.0
e 316 519 15.0
e 316 573 1.0
e 317 522 15.0
e 317 101 1.0
e 317 23 23.0
e 317 413 7.0
e 317 266 34.0
e 317 205 6.0
e 317 456 14.0
e 317 274 39.0
e 317 222 48.0
e 317 84 43.0
e 317 47 42.0
e 317 431 41.0
e 317 461 40.0
e 317 390 34.0
e 317 422 26.0
e 318 620 2.0
e 318 592 1.0
e 319 79 1.0
e 319 593 1.0
e 320 371 1.0
e 320 347 1.0
e 321 249 1.0
e 321 134 2.0
e 322 319 1.0
e 322 414 5.0
e 323 273 5.0
e 323 268 7.0
e 323 361 7.0
e 323 300 34.0
e 323 340 3.0
e 323 395 38.0
e 323 211 9.0
e 323 568 30.0
e 323 488 13.0
e 323 68 23.0
e 323 218 39.0
e 323 114 46.0
e 323 94 36.0
e 323 526 33.0
e 323 639 40.0
e 323 364 7.0
e 323 317 18.0
e 324 249 1.0
e 324 42 1.0
e 325 131 2.0
e 325 547 1.0
e 326 105 1.0
e 326 176 1.0
e 327 308 26.0
e 327 352 20.0
e 327 376 5.0
e 327 241 34.0
e 327 606 35.0
e 327 226 32.0
e 327 101 42.0
e 327 289 46.0
e 327 44 28.0
e 327 83 32.0
e 327 446 9.0
e 327 216 17.0
e 327 377 38.0
e 328 10 1.0
e 328 372 1.0
e 329 58 1.0
e 329 543 5.0
e 330 615 1.0
e 330 621 1.0
e 331 174 2.0
e 331 381 1.0
e 332 254 2.0
e 332 495 1.0
e 333 332 1.0
e 333 542 1.0
e 334 468 1.0
e 334 69 1.0
e 335 372 1.0
e 335 234 1.0
e 336 527 1.0
e 336 444 1.0
e 337 634 1.0
e 337 308 1.0
e 338 80 2.0
e 338 548 1.0
e 339 558 2.0
e 339 57 1.0
e 340 437 36.0
e 340 320 1.0
e 341 472 1.0
e 341 386 1.0
e 342 155 1.0
e 342 377 1.0
e 343 64 1.0
e 343 342 1.0
e 344 174 1.0
e 344 203 3.0
e 345 125 1.0
e 345 634 1.0
e 346 481 2.0
e 346 296 1.0
e 347 213 46.0
e 347 239 2.0
e 348 192 1.0
e 348 75 1.0
e 349 628 1.0
e 349 395 2.0
e 350 535 1.0
e 350 141 1.0
e 351 394 1.0
e 351 189 1.0
e 352 152 1.0
e 352 441 2.0
e 353 484 1.0
e 353 294 1.0
e 354 612 38.0
e 354 536 1.0
e 355 254 2.0
e 355 558 1.0
e 356 325 1.0
e 356 453 1.0
e 357 394 1.0
e 357 407 1.0
e 358 287 1.0
e 358 199 1.0
e 359 465 1.0
e 359 636 1.0
e 360 436 1.0
e 360 307 1.0
e 361 595 1.0
e 361 482 2.0
e 362 400 1.0
e 362 428 2.0
e 363 39 1.0
e 363 459 1.0
e 364 637 2.0
e 364 189 2.0
e 365 341 2.0
e 365 59 2.0
e 366 572 2.0
e 366 579 1.0
e 367 112 2.0
e 367 348 1.0
e 368 1 1.0
e 368 450 1.0
e 369 349 1.0
e 369 310 1.0
e 370 475 14.0
e 370 420 1.0
e 371 189 2.0
e 371 612 26.0
e 372 622 2.0
e 372 30 1.0
e 373 324 1.0
e 373 223 1.0
e 374 412 1.0
e 374 629 1.0
e 375 205 1.0
e 375 610 2.0
e 376 628 2.0
e 376 261 1.0
e 377 214 2.0
e 377 207 1.0
e 378 281 1.0
e 378 13 1.0
e 379 349 1.0
e 379 316 1.0
e 380 616 1.0
e 380 37 4.0
e 381 608 1.0
e 381 366 2.0
e 382 604 1.0
e 382 154 1.0
e 383 367 1.0
e 383 33 2.0
e 384 244 1.0
e 384 619 1.0
e 385 522 3.0
e 385 521 1.0
e 386 379 1.0
e 386 606 3.0
e 387 48 1.0
e 387 332 2.0
e 388 432 1.0
e 388 285 1.0
e 389 402 1.0
e 389 201 1.0
e 390 70 2.0
e 390 156 7.0
e 391 635 1.0
e 391 558 1.0
e 392 358 1.0
e 392 50 1.0
e 393 73 1.0
e 393 582 1.0
e 394 550 1.0
e 394 172 1.0
e 395 121 1.0
e 395 341 1.0
e 396 54 25.0
e 396 136 29.0
e 396 555 6.0
e 396 551 5.0
e 396 145 41.0
e 396 66 38.0
e 396 146 1.0
e 396 8 47.0
e 396 286 42.0
e 396 384 19.0
e 396 361 16.0
e 396 200 30.0
e 396 606 38.0
e 397 175 2.0
e 397 567 1.0
e 398 616 1.0
e 398 634 1.0
e 399 612 36.0
e 399 504 1.0
e 400 62 1.0
e 400 190 1.0
e 401 124 23.0
e 401 535 32.0
e 401 587 14.0
e 401 58 23.0
e 401 91 40.0
e 401 452 39.0
e 401 405 32.0
e 401 197 6.0
e 401 625 11.0
e 401 477 27.0
e 401 364 37.0
e 401 532 24.0
e 401 288 17.0
e 401 139 20.0
e 402 527 1.0
e 402 638 1.0
e 403 51 2.0
e 403 473 1.0
e 404 438 1.0
e 404 70 1.0
e 405 231 37.0
e 405 515 46.0
e 405 529 8.0
e 405 452 11.0
e 405 482 2.0
e 405 595 25.0
e 405 340 32.0
e 405 434 34.0
e 405 456 4.0
e 405 612 26.0
e 405 115 44.0
e 405 305 12.0
e 406 403 1.0
e 406 140 1.0
e 407 605 2.0
e 407 274 2.0
e 408 543 3.0
e 408 626 2.0
e 409 87 35.0
e 409 202 10.0
e 409 584 33.0
e 409 123 4.0
e 409 427 37.0
e 409 250 43.0
e 409 138 31.0
e 409 322 33.0
e 409 488 48.0
e 409 32 1.0
e 409 401 19.0
e 409 34 30.0
e 409 350 44.0
e 410 630 1.0
e 410 167 2.0
e 411 339 2.0
e 411 122 2.0
e 412 282 1.0
e 412 592 2.0
e 413 457 1.0
e 413 620 1.0
e 414 207 1.0
e 414 612 21.0
e 415 227 1.0
e 415 100 1.0
e 416 393 1.0
e 416 144 1.0
e 417 444 1.0
e 417 13 1.0
e 418 182 1.0
e 418 147 1.0
e 419 392 28.0
e 419 256 21.0
e 419 32 26.0
e 419 529 28.0
e 419 343 42.0
e 419 68 36.0
e 419 569 3.0
e 419 627 28.0
e 419 458 24.0
e 419 110 10.0
e 419 376 9.0
e 419 377 29.0
e 419 503 7.0
e 419 467 38.0
e 419 240 19.0
e 419 591 8.0
e 420 399 2.0
e 420 79 1.0
e 421 278 48.0
e 421 614 33.0
e 422 13 1.0
e 422 524 1.0
e 423 496 1.0
e 423 475 28.0
e 424 354 1.0
e 424 100 2.0
e 425 574 1.0
e 425 169 1.0
e 426 634 15.0
e 426 273 14.0
e 426 191 48.0
e 426 197 6.0
e 426 576 13.0
e 426 53 23.0
e 426 168 43.0
e 426 448 47.0
e 426 165 18.0
e 426 532 46.0
e 426 124 42.0
e 426 416 4.0
e 426 414 11.0
e 426 391 48.0
e 426 366 27.0
e 426 533 36.0
e 427 576 33.0
e 427 526 29.0
e 427 126 6.0
e 427 15 32.0
e 427 579 37.0
e 427 435 35.0
e 427 318 7.0
e 427 49 23.0
e 427 220 41.0
e 427 60 31.0
e 427 639 38.0
e 427 290 20.0
e 427 129 5.0
e 427 54 33.0
e 428 535 2.0
e 428 612 38.0
e 429 424 1.0
e 429 162 1.0
e 430 630 1.0
e 430 362 1.0
e 431 521 2.0
e 431 530 1.0
e 432 272 1.0
e 432 449 1.0
e 433 440 2.0
e 433 160 1.0
e 434 183 1.0
e 434 397 1.0
e 435 396 38.0
e 435 570 1.0
e 436 543 1.0
e 436 472 1.0
e 437 263 49.0
e 437 447 42.0
e 437 305 20.0
e 437 453 4.0
e 437 295 14.0
e 437 542 4.0
e 437 475 18.0
e 437 290 36.0
e 437 14 1.0
e 437 77 24.0
e 437 571 1.0
e 438 184 2.0
e 438 418 2.0
e 439 496 1.0
e 439 522 2.0
e 440 589 1.0
e 440 313 1.0
e 441 282 1.0
e 441 373 1.0
e 442 460 2.0
e 442 499 1.0
e 443 343 1.0
e 443 387 1.0
e 444 327 28.0
e 444 590 2.0
e 445 141 1.0
e 445 164 2.0
e 446 0 1.0
e 446 590 1.0
e 447 328 2.0
e 447 162 1.0
e 448 540 1.0
e 448 575 1.0
e 449 169 3.0
e 449 139 34.0
e 450 592 1.0
e 450 404 1.0
e 451 280 1.0
e 451 316 1.0
e 452 430 1.0
e 452 265 1.0
e 453 491 2.0
e 453 105 2.0
e 454 62 2.0
e 454 354 2.0
e 455 239 1.0
e 455 283 2.0
e 456 557 1.0
e 456 71 1.0
e 457 313 1.0
e 457 272 1.0
e 458 317 29.0
e 458 358 2.0
e 459 381 1.0
e 459 415 1.0
e 460 50 1.0
e 460 580 1.0
e 461 389 1.0
e 461 523 1.0
e 462 549 37.0
e 462 370 1.0
e 463 180 26.0
e 463 412 13.0
e 463 552 20.0
e 463 306 26.0
e 463 350 43.0
e 463 205 3.0
e 463 612 16.0
e 463 61 48.0
e 463 366 45.0
e 463 519 32.0
e 463 488 41.0
e 463 396 2.0
e 463 229 43.0
e 463 579 30.0
e 463 569 27.0
e 464 321 1.0
e 464 184 1.0
e 465 148 1.0
e 465 155 1.0
e 466 392 2.0
e 466 602 2.0
e 467 565 2.0
e 467 341 1.0
e 468 32 23.0
e 468 225 1.0
e 469 184 1.0
e 469 449 3.0
e 470 156 15.0
e 470 155 1.0
e 471 253 1.0
e 471 585 1.0
e 472 500 2.0
e 472 226 2.0
e 473 546 2.0
e 473 52 1.0
e 474 194 1.0
e 474 355 1.0
e 475 74 23.0
e 475 158 25.0
e 475 33 16.0
e 475 315 25.0
e 475 427 3.0
e 475 429 45.0
e 475 241 13.0
e 475 150 1.0
e 476 301 1.0
e 476 352 1.0
e 477 119 1.0
e 477 115 2.0
e 478 193 1.0
e 478 24 1.0
e 479 362 1.0
e 479 483 2.0
e 480 339 1.0
e 480 354 1.0
e 481 616 1.0
e 481 101 1.0
e 482 67 1.0
e 482 79 1.0
e 483 626 1.0
e 483 147 2.0
e 484 382 1.0
e 484 316 1.0
e 485 117 1.0
e 485 245 1.0
e 486 630 1.0
e 486 564 1.0
e 487 488 42.0
e 487 149 1.0
e 488 535 44.0
e 488 444 25.0
e 488 139 18.0
e 488 532 33.0
e 488 396 25.0
e 488 295 2.0
e 488 506 47.0
e 488 298 29.0
e 488 419 45.0
e 488 334 44.0
e 488 36 16.0
e 489 301 2.0
e 489 349 2.0
e 490 122 1.0
e 490 226 2.0
e 491 90 1.0
e 491 622 2.0
e 492 62 1.0
e 492 578 1.0
e 493 580 1.0
e 493 367 1.0
e 494 615 2.0
e 494 170 1.0
e 495 320 1.0
e 495 555 1.0
e 496 535 1.0
e 496 313 1.0
e 497 566 2.0
e 497 223 1.0
e 498 306 2.0
e 498 167 18.0
e 498 396 34.0
e 498 519 15.0
e 498 98 40.0
e 498 397 19.0
e 498 102 32.0
e 498 163 15.0
e 498 213 18.0
e 498 151 12.0
e 498 533 29.0
e 498 126 16.0
e 498 110 15.0
e 498 378 8.0
e 499 11 2.0
e 499 623 4.0
e 500 237 1.0
e 500 193 1.0
e 501 622 2.0
e 501 28 1.0
e 502 425 1.0
e 502 320 1.0
e 503 298 1.0
e 503 330 1.0
e 504 492 1.0
e 504 525 2.0
e 505 363 37.0
e 505 442 33.0
e 505 91 26.0
e 505 600 11.0
e 505 68 49.0
e 505 437 39.0
e 505 327 42.0
e 505 346 17.0
e 505 323 11.0
e 505 213 46.0
e 505 45 23.0
e 505 118 42.0
e 505 532 41.0
e 505 625 12.0
e 505 46 18.0
e 505 426 25.0
e 505 198 12.0
e 506 559 1.0
e 506 73 1.0
e 507 512 1.0
e 507 509 3.0
e 508 199 1.0
e 508 489 2.0
e 509 64 1.0
e 509 423 2.0
e 510 299 1.0
e 510 64 1.0
e 511 347 2.0
e 511 87 1.0
e 512 66 1.0
e 512 99 1.0
e 513 502 1.0
e 513 263 1.0
e 514 486 1.0
e 514 607 1.0
e 515 258 2.0
e 515 307 1.0
e 516 616 1.0
e 516 459 1.0
e 517 56 1.0
e 517 188 1.0
e 518 316 2.0
e 518 538 2.0
e 519 420 17.0
e 519 221 9.0
e 519 502 33.0
e 519 269 5.0
e 519 206 7.0
e 519 426 45.0
e 519 508 16.0
e 519 150 11.0
e 519 581 33.0
e 519 213 11.0
e 519 338 24.0
e 519 216 30.0
e 519 40 10.0
e 520 545 1.0
e 520 518 1.0
e 521 484 2.0
e 521 396 45.0
e 522 382 1.0
e 522 455 2.0
e 523 363 1.0
e 523 108 1.0
e 524 235 1.0
e 524 217 2.0
e 525 624 1.0
e 525 481 1.0
e 526 531 1.0
e 526 134 1.0
e 527 623 1.0
e 527 451 1.0
e 528 457 1.0
e 528 464 2.0
e 529 228 1.0
e 529 351 2.0
e 530 394 1.0
e 530 330 3.0
e 531 89 1.0
e 531 119 1.0
e 532 329 30.0
e 532 395 2.0
e 532 242 40.0
e 532 260 16.0
e 532 398 38.0
e 532 384 6.0
e 532 498 8.0
e 532 35 32.0
e 532 291 31.0
e 533 501 2.0
e 533 406 1.0
e 534 304 2.0
e 534 619 2.0
e 535 563 1.0
e 535 201 1.0
e 536 468 1.0
e 536 280 1.0
e 537 249 1.0
e 537 21 1.0
e 538 566 1.0
e 538 528 1.0
e 539 9 1.0
e 539 359 1.0
e 540 434 1.0
e 540 348 1.0
e 541 198 3.0
e 541 107 1.0
e 542 348 2.0
e 542 520 1.0
e 543 417 1.0
e 543 500 1.0
e 544 439 3.0
e 544 31 1.0
e 545 81 1.0
e 545 94 1.0
e 546 547 1.0
e 546 25 1.0
e 547 37 1.0
e 547 441 1.0
e 548 571 2.0
e 548 375 1.0
e 549 605 47.0
e 549 617 28.0
e 549 153 24.0
e 549 61 44.0
e 549 398 8.0
e 549 466 40.0
e 549 173 44.0
e 549 361 49.0
e 549 442 10.0
e 549 532 40.0
e 549 260 28.0
e 549 378 5.0
e 549 475 1.0
e 549 47 40.0
e 549 63 24.0
e 549 261 18.0
e 550 392 1.0
e 551 374 2.0
e 551 329 1.0
e 552 504 2.0
e 552 391 2.0
e 553 356 1.0
e 553 604 1.0
e 554 358 1.0
e 554 74 1.0
e 555 494 1.0
e 555 352 1.0
e 556 277 2.0
e 556 498 47.0
e 557 93 1.0
e 557 618 1.0
e 558 88 19.0
e 558 531 1.0
e 559 301 2.0
e 559 288 4.0
e 560 355 1.0
e 560 558 1.0
e 561 490 1.0
e 561 161 2.0
e 562 634 1.0
e 562 483 1.0
e 563 6 4.0
e 564 594 1.0
e 564 120 1.0
e 565 399 1.0
e 565 301 2.0
e 566 369 3.0
e 566 236 1.0
e 567 25 1.0
e 567 51 1.0
e 568 216 2.0
e 568 128 1.0
e 569 403 1.0
e 569 267 1.0
e 570 514 1.0
e 570 34 2.0
e 571 351 1.0
e 571 41 2.0
e 572 514 1.0
e 572 22 1.0
e 573 426 40.0
e 573 142 2.0
e 574 548 1.0
e 574 578 2.0
e 575 345 1.0
e 575 467 1.0
e 576 512 12.0
e 576 509 42.0
e 576 585 12.0
e 576 488 20.0
e 576 159 12.0
e 576 138 32.0
e 576 385 43.0
e 576 398 1.0
e 576 229 3.0
e 576 54 14.0
e 576 260 24.0
e 576 414 27.0
e 576 600 27.0
e 576 492 23.0
e 577 408 1.0
e 577 218 2.0
e 578 302 1.0
e 578 528 1.0
e 579 501 2.0
e 579 185 40.0
e 580 440 1.0
e 580 633 1.0
e 581 200 7.0
e 581 131 49.0
e 581 571 15.0
e 581 271 11.0
e 581 321 1.0
e 581 229 49.0
e 581 230 15.0
e 581 242 31.0
e 581 401 24.0
e 581 385 27.0
e 581 430 23.0
e 581 243 7.0
e 581 453 26.0
e 581 2 45.0
e 582 320 1.0
e 582 400 1.0
e 583 250 1.0
e 583 151 1.0
e 584 420 34.0
e 584 99 5.0
e 584 401 30.0
e 584 431 7.0
e 584 433 7.0
e 584 154 39.0
e 584 231 2.0
e 584 132 46.0
e 584 262 29.0
e 584 232 12.0
e 584 426 3.0
e 584 266 22.0
e 584 488 18.0
e 584 612 2.0
e 585 116 2.0
e 585 382 1.0
e 586 202 1.0
e 586 541 1.0
e 587 591 2.0
e 587 22 1.0
e 588 132 2.0
e 588 217 2.0
e 589 519 2.0
e 589 429 1.0
e 590 239 2.0
e 590 560 1.0
e 591 485 2.0
e 591 78 2.0
e 592 534 1.0
e 592 202 1.0
e 593 96 1.0
e 593 558 1.0
e 594 254 2.0
e 594 485 1.0
e 595 536 2.0
e 595 500 2.0
e 596 227 2.0
e 596 598 1.0
e 597 435 1.0
e 597 573 2.0
e 598 504 1.0
e 598 411 1.0
e 599 272 1.0
e 599 631 1.0
e 600 530 1.0
e 600 0 1.0
e 601 541 1.0
e 601 617 39.0
e 602 254 1.0
e 602 194 1.0
e 603 493 1.0
e 603 500 2.0
e 604 199 1.0
e 604 441 1.0
e 605 121 1.0
e 605 130 1.0
e 606 400 4.0
e 606 78 2.0
e 607 255 1.0
e 607 598 1.0
e 608 50 1.0
e 608 10 2.0
e 609 504 1.0
e 609 356 1.0
e 610 487 1.0
e 610 509 1.0
e 611 410 1.0
e 611 253 1.0
e 612 470 6.0
e 612 116 41.0
e 612 4 27.0
e 612 493 36.0
e 612 503 48.0
e 612 353 13.0
e 612 427 4.0
e 612 158 16.0
e 613 479 1.0
e 613 20 1.0
e 614 50 12.0
e 614 330 11.0
e 614 587 17.0
e 614 266 6.0
e 614 275 40.0
e 614 506 46.0
e 614 353 7.0
e 614 498 45.0
e 614 104 26.0
e 614 65 39.0
e 614 488 25.0
e 614 243 33.0
e 614 532 10.0
e 614 471 8.0
e 615 199 1.0
e 615 560 1.0
e 616 95 1.0
e 616 314 1.0
e 617 370 12.0
e 617 556 19.0
e 617 232 22.0
e 617 581 39.0
e 617 4 28.0
e 617 233 19.0
e 617 546 28.0
e 617 612 35.0
e 617 405 37.0
e 617 627 20.0
e 617 532 35.0
e 617 237 30.0
e 617 278 28.0
e 617 511 27.0
e 618 531 1.0
e 618 135 1.0
e 619 565 2.0
e 619 516 1.0
e 620 437 14.0
e 620 473 1.0
e 621 381 1.0
e 621 9 1.0
e 622 432 2.0
e 622 311 2.0
e 623 55 1.0
e 623 532 11.0
e 624 195 1.0
e 624 280 1.0
e 625 423 2.0
e 625 616 2.0
e 626 213 45.0
e 626 413 1.0
e 627 235 1.0
e 627 253 1.0
e 628 56 2.0
e 628 183 1.0
e 629 160 1.0
e 629 281 1.0
e 630 403 1.0
e 630 165 2.0
e 631 120 2.0
e 631 238 2.0
e 632 123 2.0
e 632 593 1.0
e 633 369 1.0
e 633 259 2.0
e 634 177 2.0
e 634 609 1.0
e 635 610 2.0
e 635 564 1.0
e 636 284 1.0
e 636 171 1.0
e 637 178 6.0
e 637 277 1.0
e 638 93 1.0
e 638 52 1.0
e 639 596 3.0
e 639 95 1.0
